
Gurobi 10.0.3 (linux64, gurobi_cl) logging started Thu Nov  2 11:40:08 2023

Set parameter Username
Set parameter TimeLimit to value 3600
Set parameter LogFile to value "RCPSP_851.log"
Set parameter Threads to value 32
Academic license - for non-commercial use only - expires 2024-10-30
Using license file /home/jrivera6/gurobi-licenses/v1003/compute-0-35/gurobi.lic

Gurobi Optimizer version 10.0.3 build v10.0.3rc0 (linux64)
Copyright (c) 2023, Gurobi Optimization, LLC

Read MPS format model from file RCPSP_851.mps
Reading time = 0.05 seconds
RCPSP_851: 19662 rows, 7750 columns, 64677 nonzeros

CPU model: Intel(R) Xeon(R) Gold 6130 CPU @ 2.10GHz, instruction set [SSE2|AVX|AVX2|AVX512]
Thread count: 32 physical cores, 32 logical processors, using up to 32 threads

Optimize a model with 19662 rows, 7750 columns and 64677 nonzeros
Model fingerprint: 0xf53783fb
Variable types: 62 continuous, 7688 integer (7688 binary)
Coefficient statistics:
  Matrix range     [1e+00, 3e+02]
  Objective range  [1e+00, 1e+00]
  Bounds range     [1e+00, 1e+00]
  RHS range        [1e+00, 4e+02]
Presolve removed 8013 rows and 2998 columns
Presolve time: 3.98s
Presolved: 11649 rows, 4752 columns, 39497 nonzeros
Variable types: 61 continuous, 4691 integer (4691 binary)

Root relaxation: objective 7.300000e+01, 1558 iterations, 0.04 seconds (0.01 work units)

    Nodes    |    Current Node    |     Objective Bounds      |     Work
 Expl Unexpl |  Obj  Depth IntInf | Incumbent    BestBd   Gap | It/Node Time

     0     0   73.00000    0   18          -   73.00000      -     -    4s
     0     0   73.00000    0   91          -   73.00000      -     -    6s
     0     0   73.00000    0   92          -   73.00000      -     -    7s
     0     0   73.00000    0   14          -   73.00000      -     -    9s
     0     0   73.00000    0   16          -   73.00000      -     -    9s
     0     0   73.00000    0    8          -   73.00000      -     -   11s
     0     0   73.00000    0    8          -   73.00000      -     -   11s
H    0     0                      73.0000000   73.00000  0.00%     -   11s
     0     0   73.00000    0  194   73.00000   73.00000  0.00%     -   11s

Cutting planes:
  Cover: 4
  Implied bound: 46
  MIR: 52
  StrongCG: 1
  RLT: 14
  Relax-and-lift: 13

Explored 1 nodes (9054 simplex iterations) in 11.76 seconds (3.74 work units)
Thread count was 32 (of 32 available processors)

Solution count 1: 73 

Optimal solution found (tolerance 1.00e-04)
Best objective 7.300000000000e+01, best bound 7.300000000000e+01, gap 0.0000%

Wrote result file 'RCPSP_851.sol'

